p cnf 131 319
a 16 14 12 10 8 6 4 2 36 34 32 30 93 46 105 110 118 1 29 45 53 0
d 80 36 1 0
d 104 105 45 0
d 48 93 29 0
d 111 105 53 0
d 3 2 0
d 5 4 0
d 7 6 0
d 9 8 0
d 11 10 0
d 13 12 0
d 15 14 0
d 17 16 0
d 18 16 0
d 19 16 0
d 20 14 16 0
d 21 12 14 16 0
d 22 10 12 14 16 0
d 23 8 10 12 14 16 0
d 24 6 8 10 12 14 16 0
d 25 4 6 8 10 12 14 16 0
d 26 2 4 6 8 10 12 14 16 0
d 27 1 2 4 6 8 10 12 14 16 0
d 28 1 2 4 6 8 10 12 14 16 0
d 31 30 0
d 33 32 0
d 35 34 0
d 37 36 0
d 38 36 2 4 6 8 10 12 14 16 0
d 39 34 36 2 4 6 8 10 12 14 16 0
d 40 32 34 36 2 4 6 8 10 12 14 16 0
d 41 30 32 34 36 2 4 6 8 10 12 14 16 0
d 42 29 30 32 34 36 2 4 6 8 10 12 14 16 0
d 43 29 30 32 34 36 2 4 6 8 10 12 14 16 0
d 44 1 2 4 6 8 10 12 14 16 29 30 32 34 36 0
d 47 46 0
d 49 46 93 29 0
d 50 45 46 93 29 0
d 51 45 46 93 29 0
d 52 1 2 4 6 8 10 12 14 16 29 30 32 34 36 45 46 93 0
d 54 53 46 93 29 0
d 55 53 46 93 29 0
d 56 1 2 4 6 8 10 12 14 16 29 30 32 34 36 45 46 93 53 0
d 57 16 0
d 58 16 0
d 59 14 16 0
d 60 14 16 0
d 61 16 14 0
d 62 12 14 16 0
d 63 12 14 16 0
d 64 16 14 12 0
d 65 10 12 14 16 0
d 66 10 12 14 16 0
d 67 16 14 12 10 0
d 68 8 10 12 14 16 0
d 69 8 10 12 14 16 0
d 70 16 14 12 10 8 0
d 71 6 8 10 12 14 16 0
d 72 6 8 10 12 14 16 0
d 73 16 14 12 10 8 6 0
d 74 4 6 8 10 12 14 16 0
d 75 4 6 8 10 12 14 16 0
d 76 16 14 12 10 8 6 4 0
d 77 2 4 6 8 10 12 14 16 0
d 78 2 4 6 8 10 12 14 16 0
d 79 16 14 12 10 8 6 4 2 0
d 81 36 2 4 6 8 10 12 14 16 0
d 82 36 1 2 4 6 8 10 12 14 16 0
d 83 16 14 12 10 8 6 4 2 36 1 0
d 84 34 36 2 4 6 8 10 12 14 16 0
d 85 34 36 2 4 6 8 10 12 14 16 0
d 86 16 14 12 10 8 6 4 2 36 1 34 0
d 87 32 34 36 2 4 6 8 10 12 14 16 0
d 88 32 34 36 2 4 6 8 10 12 14 16 0
d 89 16 14 12 10 8 6 4 2 36 1 34 32 0
d 90 30 32 34 36 2 4 6 8 10 12 14 16 0
d 91 30 32 34 36 2 4 6 8 10 12 14 16 0
d 92 16 14 12 10 8 6 4 2 36 1 34 32 30 0
d 94 93 30 32 34 36 2 4 6 8 10 12 14 16 0
d 95 93 30 32 34 36 2 4 6 8 10 12 14 16 0
d 96 93 30 32 34 36 2 4 6 8 10 12 14 16 0
d 97 16 14 12 10 8 6 4 2 36 1 34 32 30 93 0
d 98 46 93 29 0
d 99 93 0
d 100 93 30 32 34 36 2 4 6 8 10 12 14 16 0
d 101 46 93 30 32 34 36 2 4 6 8 10 12 14 16 0
d 102 46 93 29 30 32 34 36 2 4 6 8 10 12 14 16 0
d 103 16 14 12 10 8 6 4 2 36 1 34 32 30 93 46 29 0
d 106 46 93 30 32 34 36 2 4 6 8 10 12 14 16 0
d 107 105 46 93 30 32 34 36 2 4 6 8 10 12 14 16 0
d 108 105 45 46 93 30 32 34 36 2 4 6 8 10 12 14 16 0
d 109 16 14 12 10 8 6 4 2 36 1 34 32 30 93 46 29 105 45 0
d 112 110 105 53 0
d 113 105 0
d 114 105 46 93 30 32 34 36 2 4 6 8 10 12 14 16 0
d 115 110 105 46 93 30 32 34 36 2 4 6 8 10 12 14 16 0
d 116 110 105 53 46 93 30 32 34 36 2 4 6 8 10 12 14 16 0
d 117 16 14 12 10 8 6 4 2 36 1 34 32 30 93 46 29 105 45 110 53 0
d 119 110 0
d 120 110 105 53 0
d 121 118 110 105 53 0
d 122 110 105 46 93 30 32 34 36 2 4 6 8 10 12 14 16 0
d 123 118 110 105 46 93 30 32 34 36 2 4 6 8 10 12 14 16 0
d 124 118 110 105 53 46 93 30 32 34 36 2 4 6 8 10 12 14 16 0
d 125 16 14 12 10 8 6 4 2 36 1 34 32 30 93 46 29 105 45 110 53 118 0
d 126 118 0
d 127 118 110 105 53 0
d 128 118 110 105 46 93 30 32 34 36 2 4 6 8 10 12 14 16 0
d 129 118 110 105 53 46 93 30 32 34 36 2 4 6 8 10 12 14 16 0
d 130 16 14 12 10 8 6 4 2 36 1 34 32 30 93 46 29 105 45 110 53 118 0
d 131 1 2 4 6 8 10 12 14 16 29 30 32 34 36 45 46 93 53 105 110 118 0
3 2 0
-3 -2 0
5 4 0
-5 -4 0
7 6 0
-7 -6 0
9 8 0
-9 -8 0
11 10 0
-11 -10 0
13 12 0
-13 -12 0
15 14 0
-15 -14 0
17 16 0
-17 -16 0
18 -16 0
18 -17 0
-18 16 17 0
-19 17 0
-19 18 0
19 -17 -18 0
-20 15 0
-20 19 0
20 -15 -19 0
-21 13 0
-21 20 0
21 -13 -20 0
-22 11 0
-22 21 0
22 -11 -21 0
-23 9 0
-23 22 0
23 -9 -22 0
-24 7 0
-24 23 0
24 -7 -23 0
-25 5 0
-25 24 0
25 -5 -24 0
-26 3 0
-26 25 0
26 -3 -25 0
27 -1 -26 0
27 1 26 0
-27 -1 26 0
-27 1 -26 0
28 27 0
-28 -27 0
31 30 0
-31 -30 0
33 32 0
-33 -32 0
35 34 0
-35 -34 0
37 36 0
-37 -36 0
-38 37 0
-38 26 0
38 -37 -26 0
-39 35 0
-39 38 0
39 -35 -38 0
-40 33 0
-40 39 0
40 -33 -39 0
-41 31 0
-41 40 0
41 -31 -40 0
42 -29 -41 0
42 29 41 0
-42 -29 41 0
-42 29 -41 0
43 42 0
-43 -42 0
44 -28 0
44 -43 0
-44 28 43 0
47 46 0
-47 -46 0
-49 47 0
-49 48 0
49 -47 -48 0
50 -45 -49 0
50 45 49 0
-50 -45 49 0
-50 45 -49 0
51 50 0
-51 -50 0
52 -44 0
52 -51 0
-52 44 51 0
54 -53 -49 0
54 53 49 0
-54 -53 49 0
-54 53 -49 0
55 54 0
-55 -54 0
56 -52 0
56 -55 0
-56 52 55 0
-57 16 0
-57 18 0
57 -16 -18 0
58 -57 -57 0
58 57 57 0
-58 -57 57 0
-58 57 -57 0
-59 14 0
-59 19 0
59 -14 -19 0
60 -59 -59 0
60 59 59 0
-60 -59 59 0
-60 59 -59 0
-61 58 0
-61 60 0
61 -58 -60 0
-62 12 0
-62 20 0
62 -12 -20 0
63 -62 -62 0
63 62 62 0
-63 -62 62 0
-63 62 -62 0
-64 61 0
-64 63 0
64 -61 -63 0
-65 10 0
-65 21 0
65 -10 -21 0
66 -65 -65 0
66 65 65 0
-66 -65 65 0
-66 65 -65 0
-67 64 0
-67 66 0
67 -64 -66 0
-68 8 0
-68 22 0
68 -8 -22 0
69 -68 -68 0
69 68 68 0
-69 -68 68 0
-69 68 -68 0
-70 67 0
-70 69 0
70 -67 -69 0
-71 6 0
-71 23 0
71 -6 -23 0
72 -71 -71 0
72 71 71 0
-72 -71 71 0
-72 71 -71 0
-73 70 0
-73 72 0
73 -70 -72 0
-74 4 0
-74 24 0
74 -4 -24 0
75 -74 -74 0
75 74 74 0
-75 -74 74 0
-75 74 -74 0
-76 73 0
-76 75 0
76 -73 -75 0
-77 2 0
-77 25 0
77 -2 -25 0
78 -77 -77 0
78 77 77 0
-78 -77 77 0
-78 77 -77 0
-79 76 0
-79 78 0
79 -76 -78 0
-81 36 0
-81 26 0
81 -36 -26 0
82 -80 -81 0
82 80 81 0
-82 -80 81 0
-82 80 -81 0
-83 79 0
-83 82 0
83 -79 -82 0
-84 34 0
-84 38 0
84 -34 -38 0
85 -84 -84 0
85 84 84 0
-85 -84 84 0
-85 84 -84 0
-86 83 0
-86 85 0
86 -83 -85 0
-87 32 0
-87 39 0
87 -32 -39 0
88 -87 -87 0
88 87 87 0
-88 -87 87 0
-88 87 -87 0
-89 86 0
-89 88 0
89 -86 -88 0
-90 30 0
-90 40 0
90 -30 -40 0
91 -90 -90 0
91 90 90 0
-91 -90 90 0
-91 90 -90 0
-92 89 0
-92 91 0
92 -89 -91 0
-94 93 0
-94 41 0
94 -93 -41 0
95 94 0
-95 -94 0
96 -95 -94 0
96 95 94 0
-96 -95 94 0
-96 95 -94 0
-97 92 0
-97 96 0
97 -92 -96 0
-98 46 0
-98 48 0
98 -46 -48 0
99 93 0
-99 -93 0
-100 99 0
-100 41 0
100 -99 -41 0
-101 46 0
-101 100 0
101 -46 -100 0
102 -98 -101 0
102 98 101 0
-102 -98 101 0
-102 98 -101 0
-103 97 0
-103 102 0
103 -97 -102 0
-106 47 0
-106 100 0
106 -47 -100 0
-107 105 0
-107 106 0
107 -105 -106 0
108 -104 -107 0
108 104 107 0
-108 -104 107 0
-108 104 -107 0
-109 103 0
-109 108 0
109 -103 -108 0
-112 110 0
-112 111 0
112 -110 -111 0
113 105 0
-113 -105 0
-114 113 0
-114 106 0
114 -113 -106 0
-115 110 0
-115 114 0
115 -110 -114 0
116 -112 -115 0
116 112 115 0
-116 -112 115 0
-116 112 -115 0
-117 109 0
-117 116 0
117 -109 -116 0
119 110 0
-119 -110 0
-120 119 0
-120 111 0
120 -119 -111 0
-121 118 0
-121 120 0
121 -118 -120 0
-122 119 0
-122 114 0
122 -119 -114 0
-123 118 0
-123 122 0
123 -118 -122 0
124 -121 -123 0
124 121 123 0
-124 -121 123 0
-124 121 -123 0
-125 117 0
-125 124 0
125 -117 -124 0
126 118 0
-126 -118 0
-127 126 0
-127 120 0
127 -126 -120 0
-128 126 0
-128 122 0
128 -126 -122 0
129 -127 -128 0
129 127 128 0
-129 -127 128 0
-129 127 -128 0
-130 125 0
-130 129 0
130 -125 -129 0
131 -56 0
131 -130 0
-131 56 130 0
131 0
